p edges 210 440
e 1 32
e 1 33
e 1 37
e 1 52
e 1 62
e 1 67
e 1 76
e 2 47
e 2 49
e 2 50
e 2 55
e 2 56
e 2 58
e 2 69
e 2 75
e 2 81
e 2 93
e 2 94
e 2 98
e 2 99
e 2 102
e 2 103
e 2 104
e 2 111
e 2 112
e 2 113
e 2 116
e 2 117
e 2 119
e 2 121
e 3 29
e 3 33
e 3 42
e 3 56
e 3 67
e 3 69
e 3 75
e 3 94
e 3 98
e 3 99
e 3 103
e 3 104
e 3 111
e 3 112
e 3 113
e 3 116
e 3 117
e 4 34
e 4 39
e 4 43
e 4 44
e 4 46
e 4 49
e 4 50
e 4 53
e 4 54
e 4 87
e 4 92
e 4 93
e 4 94
e 4 98
e 4 99
e 4 102
e 4 103
e 4 104
e 4 111
e 4 112
e 4 113
e 4 114
e 4 116
e 4 117
e 4 121
e 5 31
e 5 63
e 5 64
e 5 82
e 5 83
e 5 85
e 6 31
e 6 64
e 7 35
e 7 48
e 7 56
e 7 69
e 7 75
e 7 81
e 8 38
e 8 40
e 8 56
e 8 66
e 8 77
e 8 81
e 8 119
e 8 120
e 9 28
e 9 30
e 9 37
e 9 45
e 9 56
e 9 62
e 9 65
e 9 68
e 9 72
e 9 73
e 9 74
e 9 81
e 9 84
e 10 39
e 10 49
e 10 60
e 10 98
e 10 102
e 10 103
e 10 105
e 10 111
e 10 112
e 10 113
e 10 114
e 10 116
e 11 86
e 11 91
e 11 94
e 11 96
e 11 107
e 11 110
e 11 111
e 11 112
e 11 113
e 11 114
e 11 115
e 12 90
e 12 100
e 13 80
e 13 134
e 13 136
e 14 127
e 14 135
e 14 137
e 14 160
e 14 164
e 15 126
e 15 164
e 16 142
e 16 152
e 16 188
e 16 191
e 17 140
e 17 152
e 17 188
e 17 191
e 18 131
e 18 156
e 18 159
e 18 162
e 18 166
e 19 129
e 19 148
e 19 151
e 19 153
e 19 160
e 19 165
e 19 166
e 19 170
e 19 171
e 19 177
e 20 122
e 20 124
e 20 145
e 20 172
e 20 173
e 20 179
e 20 180
e 21 143
e 21 148
e 21 160
e 21 175
e 21 178
e 21 184
e 22 144
e 22 151
e 22 168
e 22 174
e 22 176
e 22 181
e 22 182
e 22 183
e 23 151
e 23 168
e 24 192
e 24 196
e 25 185
e 25 187
e 25 189
e 25 192
e 25 194
e 25 196
e 26 128
e 26 146
e 26 152
e 26 188
e 26 191
e 27 37
e 27 62
e 27 76
e 28 65
e 28 72
e 29 42
e 29 51
e 29 67
e 30 45
e 30 68
e 30 74
e 30 79
e 33 52
e 33 197
e 34 46
e 34 87
e 34 98
e 34 116
e 34 199
e 35 48
e 35 56
e 35 69
e 35 75
e 35 201
e 36 70
e 36 119
e 37 62
e 37 76
e 38 71
e 38 120
e 39 49
e 39 57
e 39 92
e 39 102
e 39 111
e 40 66
e 40 77
e 40 81
e 40 202
e 41 50
e 41 58
e 41 121
e 42 51
e 42 67
e 43 53
e 43 59
e 43 93
e 43 103
e 43 112
e 44 54
e 44 94
e 44 104
e 44 113
e 44 200
e 45 68
e 45 74
e 45 79
e 46 87
e 46 98
e 46 116
e 46 199
e 47 55
e 47 99
e 47 117
e 47 198
e 48 56
e 48 69
e 48 75
e 48 201
e 49 57
e 49 92
e 49 102
e 49 111
e 50 58
e 50 121
e 51 67
e 52 197
e 53 59
e 53 93
e 53 103
e 53 112
e 54 94
e 54 104
e 54 113
e 54 200
e 55 99
e 55 117
e 55 198
e 56 69
e 56 75
e 56 201
e 57 92
e 57 102
e 57 111
e 58 121
e 59 93
e 59 103
e 59 112
e 60 95
e 60 105
e 60 114
e 61 85
e 61 125
e 62 76
e 63 64
e 65 72
e 66 77
e 66 81
e 66 202
e 68 74
e 68 79
e 69 75
e 69 201
e 70 119
e 71 120
e 73 78
e 73 84
e 74 79
e 75 201
e 77 81
e 77 202
e 78 84
e 81 202
e 85 125
e 86 97
e 86 107
e 87 98
e 87 116
e 87 199
e 88 108
e 88 118
e 89 109
e 89 141
e 90 100
e 90 203
e 91 101
e 91 110
e 92 102
e 92 111
e 93 103
e 93 112
e 94 104
e 94 113
e 94 200
e 95 105
e 95 114
e 96 106
e 96 115
e 97 107
e 98 116
e 98 199
e 99 117
e 99 198
e 100 203
e 101 110
e 102 111
e 103 112
e 104 113
e 104 200
e 105 114
e 106 115
e 108 118
e 109 141
e 113 200
e 116 199
e 117 198
e 122 124
e 122 167
e 124 167
e 127 132
e 127 135
e 128 146
e 128 210
e 129 148
e 129 155
e 129 160
e 129 170
e 130 138
e 130 161
e 131 150
e 131 156
e 131 162
e 132 135
e 133 139
e 133 163
e 137 164
e 137 204
e 138 161
e 139 163
e 143 169
e 143 175
e 146 210
e 148 155
e 148 160
e 148 170
e 149 186
e 149 193
e 150 156
e 150 162
e 151 157
e 151 171
e 151 177
e 152 188
e 152 191
e 152 195
e 153 158
e 153 165
e 154 159
e 154 166
e 155 160
e 155 170
e 156 162
e 157 171
e 157 177
e 158 165
e 159 166
e 160 170
e 164 204
e 168 206
e 168 207
e 169 175
e 171 177
e 172 179
e 172 205
e 179 205
e 185 192
e 185 208
e 186 193
e 187 190
e 187 194
e 188 191
e 188 195
e 189 196
e 189 209
e 190 194
e 191 195
e 192 208
e 196 209
e 206 207
w 1 661
w 2 4
w 3 4
w 4 4
w 5 2
w 6 5
w 7 328
w 8 328
w 9 328
w 10 333
w 11 333
w 12 333
w 13 7
w 14 166
w 15 992
w 16 500
w 17 500
w 18 333
w 19 333
w 20 9
w 21 8
w 22 8
w 23 991
w 24 333
w 25 333
w 26 333
w 27 661
w 28 343
w 29 661
w 30 9
w 31 994
w 32 338
w 33 333
w 34 4
w 35 4
w 36 4
w 37 3
w 38 4
w 39 4
w 40 4
w 41 4
w 42 4
w 43 4
w 44 4
w 45 4
w 46 4
w 47 4
w 48 4
w 49 4
w 50 4
w 51 4
w 52 4
w 53 4
w 54 4
w 55 4
w 56 4
w 57 4
w 58 4
w 59 4
w 60 4
w 61 2
w 62 5
w 63 5
w 64 994
w 65 328
w 66 328
w 67 328
w 68 328
w 69 328
w 70 328
w 71 328
w 72 328
w 73 328
w 74 328
w 75 328
w 76 328
w 77 328
w 78 328
w 79 328
w 80 992
w 81 9
w 82 997
w 83 997
w 84 343
w 85 10
w 86 333
w 87 333
w 88 333
w 89 333
w 90 333
w 91 333
w 92 333
w 93 333
w 94 333
w 95 333
w 96 333
w 97 333
w 98 333
w 99 333
w 100 333
w 101 333
w 102 333
w 103 333
w 104 333
w 105 333
w 106 333
w 107 333
w 108 333
w 109 333
w 110 333
w 111 318
w 112 318
w 113 318
w 114 328
w 115 333
w 116 318
w 117 651
w 118 333
w 119 666
w 120 666
w 121 985
w 122 3
w 123 9
w 124 986
w 125 986
w 126 7
w 127 7
w 128 166
w 129 166
w 130 166
w 131 166
w 132 166
w 133 166
w 134 992
w 135 826
w 136 992
w 137 826
w 138 500
w 139 500
w 140 499
w 141 333
w 142 500
w 143 988
w 144 990
w 145 990
w 146 500
w 147 499
w 148 333
w 149 333
w 150 333
w 151 8
w 152 294
w 153 333
w 154 333
w 155 333
w 156 166
w 157 333
w 158 333
w 159 333
w 160 158
w 161 333
w 162 333
w 163 333
w 164 7
w 165 333
w 166 333
w 167 9
w 168 4
w 169 8
w 170 8
w 171 8
w 172 8
w 173 990
w 174 991
w 175 2
w 176 991
w 177 649
w 178 991
w 179 981
w 180 990
w 181 991
w 182 991
w 183 991
w 184 991
w 185 333
w 186 333
w 187 333
w 188 185
w 189 333
w 190 333
w 191 185
w 192 333
w 193 333
w 194 333
w 195 333
w 196 333
w 197 661
w 198 4
w 199 4
w 200 4
w 201 328
w 202 328
w 203 333
w 204 166
w 205 9
w 206 8
w 207 986
w 208 333
w 209 333
w 210 333
n 1 x2826
n 2 x2838
n 3 x2839
n 4 x2841
n 5 x2842
n 6 x2843
n 7 x2850
n 8 x2851
n 9 x2852
n 10 x2861
n 11 x2862
n 12 x2863
n 13 x2900
n 14 x2922
n 15 x2924
n 16 x2929
n 17 x2931
n 18 x2949
n 19 x2950
n 20 x2957
n 21 x2961
n 22 x2987
n 23 x2988
n 24 x2992
n 25 x2993
n 26 x2994
n 27 x3091
n 28 x3093
n 29 x3096
n 30 x3097
n 31 x3100
n 32 x3105
n 33 x3107
n 34 x3200
n 35 x3202
n 36 x3203
n 37 x3204
n 38 x3205
n 39 x3207
n 40 x3208
n 41 x3209
n 42 x3210
n 43 x3212
n 44 x3213
n 45 x3216
n 46 x3219
n 47 x3220
n 48 x3222
n 49 x3226
n 50 x3227
n 51 x3228
n 52 x3229
n 53 x3230
n 54 x3231
n 55 x3253
n 56 x3255
n 57 x3259
n 58 x3260
n 59 x3261
n 60 x3262
n 61 x3279
n 62 x3282
n 63 x3288
n 64 x3311
n 65 x3351
n 66 x3352
n 67 x3354
n 68 x3355
n 69 x3360
n 70 x3361
n 71 x3364
n 72 x3365
n 73 x3369
n 74 x3370
n 75 x3374
n 76 x3376
n 77 x3379
n 78 x3383
n 79 x3384
n 80 x3441
n 81 x3444
n 82 x3449
n 83 x3451
n 84 x3452
n 85 x3453
n 86 x3507
n 87 x3509
n 88 x3512
n 89 x3513
n 90 x3514
n 91 x3515
n 92 x3516
n 93 x3517
n 94 x3518
n 95 x3520
n 96 x3521
n 97 x3522
n 98 x3524
n 99 x3525
n 100 x3527
n 101 x3528
n 102 x3529
n 103 x3530
n 104 x3531
n 105 x3533
n 106 x3534
n 107 x3535
n 108 x3538
n 109 x3539
n 110 x3540
n 111 x3541
n 112 x3542
n 113 x3543
n 114 x3544
n 115 x3545
n 116 x3597
n 117 x3598
n 118 x3600
n 119 x3601
n 120 x3603
n 121 x3605
n 122 x3886
n 123 x3887
n 124 x3892
n 125 x3899
n 126 x3990
n 127 x4003
n 128 x4119
n 129 x4208
n 130 x4211
n 131 x4212
n 132 x4215
n 133 x4216
n 134 x4236
n 135 x4243
n 136 x4245
n 137 x4247
n 138 x4285
n 139 x4288
n 140 x4294
n 141 x4299
n 142 x4315
n 143 x4354
n 144 x4360
n 145 x4363
n 146 x4474
n 147 x4476
n 148 x4486
n 149 x4487
n 150 x4488
n 151 x4489
n 152 x4491
n 153 x4494
n 154 x4495
n 155 x4497
n 156 x4499
n 157 x4500
n 158 x4506
n 159 x4507
n 160 x4509
n 161 x4511
n 162 x4512
n 163 x4514
n 164 x4516
n 165 x4519
n 166 x4521
n 167 x4582
n 168 x4588
n 169 x4627
n 170 x4629
n 171 x4901
n 172 x4902
n 173 x4910
n 174 x4911
n 175 x4912
n 176 x4913
n 177 x4917
n 178 x4918
n 179 x4919
n 180 x4922
n 181 x4923
n 182 x4924
n 183 x4926
n 184 x4927
n 185 x4941
n 186 x4942
n 187 x4943
n 188 x4944
n 189 x4945
n 190 x4948
n 191 x4949
n 192 x4951
n 193 x4952
n 194 x4953
n 195 x4954
n 196 x4955
n 197 x5043
n 198 x5057
n 199 x5058
n 200 x5059
n 201 x5070
n 202 x5071
n 203 x5078
n 204 x5119
n 205 x5142
n 206 x5162
n 207 x5163
n 208 x5169
n 209 x5170
n 210 x5171
o 1 2546
o 2 2558
o 3 2559
o 4 2561
o 5 2562
o 6 2563
o 7 2570
o 8 2571
o 9 2572
o 10 2581
o 11 2582
o 12 2583
o 13 2620
o 14 2642
o 15 2644
o 16 2649
o 17 2651
o 18 2669
o 19 2670
o 20 2677
o 21 2681
o 22 2707
o 23 2708
o 24 2712
o 25 2713
o 26 2714
o 27 2811
o 28 2813
o 29 2816
o 30 2817
o 31 2820
o 32 2825
o 33 2827
o 34 2920
o 35 2922
o 36 2923
o 37 2924
o 38 2925
o 39 2927
o 40 2928
o 41 2929
o 42 2930
o 43 2932
o 44 2933
o 45 2936
o 46 2939
o 47 2940
o 48 2942
o 49 2946
o 50 2947
o 51 2948
o 52 2949
o 53 2950
o 54 2951
o 55 2973
o 56 2975
o 57 2979
o 58 2980
o 59 2981
o 60 2982
o 61 2999
o 62 3002
o 63 3008
o 64 3031
o 65 3071
o 66 3072
o 67 3074
o 68 3075
o 69 3080
o 70 3081
o 71 3084
o 72 3085
o 73 3089
o 74 3090
o 75 3094
o 76 3096
o 77 3099
o 78 3103
o 79 3104
o 80 3161
o 81 3164
o 82 3169
o 83 3171
o 84 3172
o 85 3173
o 86 3227
o 87 3229
o 88 3232
o 89 3233
o 90 3234
o 91 3235
o 92 3236
o 93 3237
o 94 3238
o 95 3240
o 96 3241
o 97 3242
o 98 3244
o 99 3245
o 100 3247
o 101 3248
o 102 3249
o 103 3250
o 104 3251
o 105 3253
o 106 3254
o 107 3255
o 108 3258
o 109 3259
o 110 3260
o 111 3261
o 112 3262
o 113 3263
o 114 3264
o 115 3265
o 116 3317
o 117 3318
o 118 3320
o 119 3321
o 120 3323
o 121 3325
o 122 3606
o 123 3607
o 124 3612
o 125 3619
o 126 3710
o 127 3723
o 128 3839
o 129 3928
o 130 3931
o 131 3932
o 132 3935
o 133 3936
o 134 3956
o 135 3963
o 136 3965
o 137 3967
o 138 4005
o 139 4008
o 140 4014
o 141 4019
o 142 4035
o 143 4074
o 144 4080
o 145 4083
o 146 4194
o 147 4196
o 148 4206
o 149 4207
o 150 4208
o 151 4209
o 152 4211
o 153 4214
o 154 4215
o 155 4217
o 156 4219
o 157 4220
o 158 4226
o 159 4227
o 160 4229
o 161 4231
o 162 4232
o 163 4234
o 164 4236
o 165 4239
o 166 4241
o 167 4302
o 168 4308
o 169 4347
o 170 4349
o 171 4621
o 172 4622
o 173 4630
o 174 4631
o 175 4632
o 176 4633
o 177 4637
o 178 4638
o 179 4639
o 180 4642
o 181 4643
o 182 4644
o 183 4646
o 184 4647
o 185 4661
o 186 4662
o 187 4663
o 188 4664
o 189 4665
o 190 4668
o 191 4669
o 192 4671
o 193 4672
o 194 4673
o 195 4674
o 196 4675
o 197 4763
o 198 4777
o 199 4778
o 200 4779
o 201 4790
o 202 4791
o 203 4798
o 204 4839
o 205 4862
o 206 4882
o 207 4883
o 208 4889
o 209 4890
o 210 4891
